NAME: random-54-19118
TYPE: TSP
COMMENT: size=54 seed=19118
DIMENSION: 110
EDGE_WEIGHT_TYPE: EUC_2D
NODE_COORD_SECTION
+0 226 824
-0 226 824
+1 45 754
-1 539 838
+2 972 419
-2 763 760
+3 814 936
-3 232 832
+4 929 913
-4 610 997
+5 47 479
-5 442 690
+6 561 863
-6 256 657
+7 697 495
-7 705 31
+8 417 677
-8 996 769
+9 704 315
-9 260 230
+10 972 48
-10 69 554
+11 845 227
-11 379 27
+12 81 205
-12 627 3
+13 929 407
-13 228 419
+14 885 961
-14 386 975
+15 331 273
-15 892 779
+16 804 33
-16 350 246
+17 911 471
-17 80 190
+18 771 444
-18 901 339
+19 551 69
-19 124 514
+20 148 880
-20 181 951
+21 453 365
-21 865 76
+22 989 575
-22 858 682
+23 220 712
-23 636 857
+24 422 830
-24 928 165
+25 134 431
-25 748 81
+26 280 828
-26 906 589
+27 293 409
-27 54 923
+28 416 887
-28 515 758
+29 818 733
-29 263 645
+30 547 623
-30 213 704
+31 699 434
-31 624 398
+32 382 226
-32 977 568
+33 198 361
-33 234 314
+34 572 476
-34 603 563
+35 813 603
-35 180 422
+36 382 562
-36 503 169
+37 990 375
-37 159 586
+38 587 396
-38 931 904
+39 68 530
-39 842 477
+40 28 832
-40 960 265
+41 410 106
-41 969 987
+42 430 944
-42 992 135
+43 820 384
-43 966 972
+44 361 561
-44 630 258
+45 176 997
-45 241 885
+46 820 25
-46 704 158
+47 207 881
-47 169 440
+48 464 360
-48 600 473
+49 320 186
-49 969 334
+50 155 482
-50 340 566
+51 378 613
-51 660 296
+52 823 841
-52 79 120
+53 786 483
-53 270 291
+54 68 457
-54 338 595
PRECEDENCE_SECTION
+0 -0
+1 -1
+2 -2
+3 -3
+4 -4
+5 -5
+6 -6
+7 -7
+8 -8
+9 -9
+10 -10
+11 -11
+12 -12
+13 -13
+14 -14
+15 -15
+16 -16
+17 -17
+18 -18
+19 -19
+20 -20
+21 -21
+22 -22
+23 -23
+24 -24
+25 -25
+26 -26
+27 -27
+28 -28
+29 -29
+30 -30
+31 -31
+32 -32
+33 -33
+34 -34
+35 -35
+36 -36
+37 -37
+38 -38
+39 -39
+40 -40
+41 -41
+42 -42
+43 -43
+44 -44
+45 -45
+46 -46
+47 -47
+48 -48
+49 -49
+50 -50
+51 -51
+52 -52
+53 -53
+54 -54
EOF
